<number of tasks>
20


<number of equipment>
5


<cycle time>
1000


<investment costs>
1,13528
2,12458
3,7891
4,22322
5,23081


<task times>
1,-1,603,-1,562,446
2,549,-1,-1,397,388
3,590,-1,-1,395,523
4,566,-1,-1,557,394
5,587,-1,-1,467,383
6,632,-1,-1,578,417
7,509,-1,-1,402,391
8,-1,555,-1,405,408
9,-1,508,-1,409,381
10,595,-1,-1,589,432
11,-1,-1,634,464,-1
12,-1,-1,679,413,-1
13,561,-1,-1,390,434
14,-1,-1,634,435,-1
15,-1,573,-1,343,327
16,-1,557,-1,396,386
17,-1,559,-1,390,382
18,-1,579,-1,386,375
19,558,-1,-1,401,441
20,572,-1,-1,412,391


<precedence relations>
1,6
2,6
3,6
4,6
5,7
5,8
5,9
5,10
6,11
6,12
6,13
6,14
6,15
8,16
10,17
12,18
15,19
19,20


<task types>
1,2
2,3
3,3
4,3
5,3
6,3
7,3
8,2
9,2
10,3
11,1
12,1
13,3
14,1
15,2
16,2
17,2
18,2
19,3
20,3


<line depot>
1,6
2,2
3,2
4,2
5,3


<processing costs>
1,7200
2,7200
3,7200
4,21600
5,14400


<saving costs>
1,1352
2,1245
3,789
4,2232
5,2308


<end>
